certificates/rado_a6_c284_N47.cnf
c Rad2 upper bound instance: x1 + 6*x2 - x3 = 284, interval [1,47]
p cnf 47 384
1 3 47 0
-1 -3 -47 0
2 4 47 0
-2 -4 -47 0
3 5 47 0
-3 -5 -47 0
4 6 47 0
-4 -6 -47 0
5 7 47 0
-5 -7 -47 0
6 8 47 0
-6 -8 -47 0
1 9 46 0
-1 -9 -46 0
7 9 47 0
-7 -9 -47 0
2 10 46 0
-2 -10 -46 0
8 10 47 0
-8 -10 -47 0
3 11 46 0
-3 -11 -46 0
9 11 47 0
-9 -11 -47 0
4 12 46 0
-4 -12 -46 0
10 12 47 0
-10 -12 -47 0
5 13 46 0
-5 -13 -46 0
11 13 47 0
-11 -13 -47 0
6 14 46 0
-6 -14 -46 0
12 14 47 0
-12 -14 -47 0
1 15 45 0
-1 -15 -45 0
7 15 46 0
-7 -15 -46 0
13 15 47 0
-13 -15 -47 0
2 16 45 0
-2 -16 -45 0
8 16 46 0
-8 -16 -46 0
14 16 47 0
-14 -16 -47 0
3 17 45 0
-3 -17 -45 0
9 17 46 0
-9 -17 -46 0
15 17 47 0
-15 -17 -47 0
4 18 45 0
-4 -18 -45 0
10 18 46 0
-10 -18 -46 0
16 18 47 0
-16 -18 -47 0
5 19 45 0
-5 -19 -45 0
11 19 46 0
-11 -19 -46 0
17 19 47 0
-17 -19 -47 0
6 20 45 0
-6 -20 -45 0
12 20 46 0
-12 -20 -46 0
18 20 47 0
-18 -20 -47 0
1 21 44 0
-1 -21 -44 0
7 21 45 0
-7 -21 -45 0
13 21 46 0
-13 -21 -46 0
19 21 47 0
-19 -21 -47 0
2 22 44 0
-2 -22 -44 0
8 22 45 0
-8 -22 -45 0
14 22 46 0
-14 -22 -46 0
20 22 47 0
-20 -22 -47 0
3 23 44 0
-3 -23 -44 0
9 23 45 0
-9 -23 -45 0
15 23 46 0
-15 -23 -46 0
21 23 47 0
-21 -23 -47 0
4 24 44 0
-4 -24 -44 0
10 24 45 0
-10 -24 -45 0
16 24 46 0
-16 -24 -46 0
22 24 47 0
-22 -24 -47 0
5 25 44 0
-5 -25 -44 0
11 25 45 0
-11 -25 -45 0
17 25 46 0
-17 -25 -46 0
23 25 47 0
-23 -25 -47 0
6 26 44 0
-6 -26 -44 0
12 26 45 0
-12 -26 -45 0
18 26 46 0
-18 -26 -46 0
24 26 47 0
-24 -26 -47 0
1 27 43 0
-1 -27 -43 0
7 27 44 0
-7 -27 -44 0
13 27 45 0
-13 -27 -45 0
19 27 46 0
-19 -27 -46 0
25 27 47 0
-25 -27 -47 0
2 28 43 0
-2 -28 -43 0
8 28 44 0
-8 -28 -44 0
14 28 45 0
-14 -28 -45 0
20 28 46 0
-20 -28 -46 0
26 28 47 0
-26 -28 -47 0
3 29 43 0
-3 -29 -43 0
9 29 44 0
-9 -29 -44 0
15 29 45 0
-15 -29 -45 0
21 29 46 0
-21 -29 -46 0
27 29 47 0
-27 -29 -47 0
4 30 43 0
-4 -30 -43 0
10 30 44 0
-10 -30 -44 0
16 30 45 0
-16 -30 -45 0
22 30 46 0
-22 -30 -46 0
28 30 47 0
-28 -30 -47 0
5 31 43 0
-5 -31 -43 0
11 31 44 0
-11 -31 -44 0
17 31 45 0
-17 -31 -45 0
23 31 46 0
-23 -31 -46 0
29 31 47 0
-29 -31 -47 0
6 32 43 0
-6 -32 -43 0
12 32 44 0
-12 -32 -44 0
18 32 45 0
-18 -32 -45 0
24 32 46 0
-24 -32 -46 0
30 32 47 0
-30 -32 -47 0
1 33 42 0
-1 -33 -42 0
7 33 43 0
-7 -33 -43 0
13 33 44 0
-13 -33 -44 0
19 33 45 0
-19 -33 -45 0
25 33 46 0
-25 -33 -46 0
31 33 47 0
-31 -33 -47 0
2 34 42 0
-2 -34 -42 0
8 34 43 0
-8 -34 -43 0
14 34 44 0
-14 -34 -44 0
20 34 45 0
-20 -34 -45 0
26 34 46 0
-26 -34 -46 0
32 34 47 0
-32 -34 -47 0
3 35 42 0
-3 -35 -42 0
9 35 43 0
-9 -35 -43 0
15 35 44 0
-15 -35 -44 0
21 35 45 0
-21 -35 -45 0
27 35 46 0
-27 -35 -46 0
33 35 47 0
-33 -35 -47 0
4 36 42 0
-4 -36 -42 0
10 36 43 0
-10 -36 -43 0
16 36 44 0
-16 -36 -44 0
22 36 45 0
-22 -36 -45 0
28 36 46 0
-28 -36 -46 0
34 36 47 0
-34 -36 -47 0
5 37 42 0
-5 -37 -42 0
11 37 43 0
-11 -37 -43 0
17 37 44 0
-17 -37 -44 0
23 37 45 0
-23 -37 -45 0
29 37 46 0
-29 -37 -46 0
35 37 47 0
-35 -37 -47 0
6 38 42 0
-6 -38 -42 0
12 38 43 0
-12 -38 -43 0
18 38 44 0
-18 -38 -44 0
24 38 45 0
-24 -38 -45 0
30 38 46 0
-30 -38 -46 0
36 38 47 0
-36 -38 -47 0
1 39 41 0
-1 -39 -41 0
7 39 42 0
-7 -39 -42 0
13 39 43 0
-13 -39 -43 0
19 39 44 0
-19 -39 -44 0
25 39 45 0
-25 -39 -45 0
31 39 46 0
-31 -39 -46 0
37 39 47 0
-37 -39 -47 0
2 40 41 0
-2 -40 -41 0
8 40 42 0
-8 -40 -42 0
14 40 43 0
-14 -40 -43 0
20 40 44 0
-20 -40 -44 0
26 40 45 0
-26 -40 -45 0
32 40 46 0
-32 -40 -46 0
38 40 47 0
-38 -40 -47 0
3 41 0
-3 -41 0
9 41 42 0
-9 -41 -42 0
15 41 43 0
-15 -41 -43 0
21 41 44 0
-21 -41 -44 0
27 41 45 0
-27 -41 -45 0
33 41 46 0
-33 -41 -46 0
39 41 47 0
-39 -41 -47 0
4 41 42 0
-4 -41 -42 0
10 42 0
-10 -42 0
16 42 43 0
-16 -42 -43 0
22 42 44 0
-22 -42 -44 0
28 42 45 0
-28 -42 -45 0
34 42 46 0
-34 -42 -46 0
40 42 47 0
-40 -42 -47 0
5 41 43 0
-5 -41 -43 0
11 42 43 0
-11 -42 -43 0
17 43 0
-17 -43 0
23 43 44 0
-23 -43 -44 0
29 43 45 0
-29 -43 -45 0
35 43 46 0
-35 -43 -46 0
41 43 47 0
-41 -43 -47 0
6 41 44 0
-6 -41 -44 0
12 42 44 0
-12 -42 -44 0
18 43 44 0
-18 -43 -44 0
24 44 0
-24 -44 0
30 44 45 0
-30 -44 -45 0
36 44 46 0
-36 -44 -46 0
42 44 47 0
-42 -44 -47 0
1 40 45 0
-1 -40 -45 0
7 41 45 0
-7 -41 -45 0
13 42 45 0
-13 -42 -45 0
19 43 45 0
-19 -43 -45 0
25 44 45 0
-25 -44 -45 0
31 45 0
-31 -45 0
37 45 46 0
-37 -45 -46 0
43 45 47 0
-43 -45 -47 0
2 40 46 0
-2 -40 -46 0
8 41 46 0
-8 -41 -46 0
14 42 46 0
-14 -42 -46 0
20 43 46 0
-20 -43 -46 0
26 44 46 0
-26 -44 -46 0
32 45 46 0
-32 -45 -46 0
38 46 0
-38 -46 0
44 46 47 0
-44 -46 -47 0
3 40 47 0
-3 -40 -47 0
9 41 47 0
-9 -41 -47 0
15 42 47 0
-15 -42 -47 0
21 43 47 0
-21 -43 -47 0
27 44 47 0
-27 -44 -47 0
33 45 47 0
-33 -45 -47 0
39 46 47 0
-39 -46 -47 0
45 47 0
-45 -47 0
