certificates/rado_a6_c284_N47.drat
-47 0
45 0
-31 0
29 0
33 0
-15 0
-43 0
-19 0
13 0
17 0
42 0
41 0
21 0
5 0
-27 0
-44 0
0
